\ This file has been generated by DOcplex
\ ENCODING=ISO-8859-1
\Problem name: random_problem.lp

Minimize
 obj: - 0.017585307881 x0 - 0.008792653941 x1 - 0.004396326970 x2
      + 0.002085508171 x3 + 0.001042754085 x4 + 0.000521377043 x5 + [
      0.008080963189 x0^2 + 0.008080963189 x0*x1 + 0.004040481594 x0*x2
      + 0.005031607663 x0*x3 + 0.002515803831 x0*x4 + 0.001257901916 x0*x5
      + 0.002020240797 x1^2 + 0.002020240797 x1*x2 + 0.002515803831 x1*x3
      + 0.001257901916 x1*x4 + 0.000628950958 x1*x5 + 0.000505060199 x2^2
      + 0.001257901916 x2*x3 + 0.000628950958 x2*x4 + 0.000314475479 x2*x5
      + 0.004525474083 x3^2 + 0.004525474083 x3*x4 + 0.002262737042 x3*x5
      + 0.001131368521 x4^2 + 0.001131368521 x4*x5 + 0.000282842130 x5^2 ]/2
Subject To
 c0: 4 x0 + 2 x1 + x2 + 4 x3 + 2 x4 + x5 = 7

Bounds
 0 <= x0 <= 1
 0 <= x1 <= 1
 0 <= x2 <= 1
 0 <= x3 <= 1
 0 <= x4 <= 1
 0 <= x5 <= 1

Binaries
 x0 x1 x2 x3 x4 x5
End
